NAME: ACTUAL_TOURS/amz1898
TYPE: TOUR
COMMENT: RouteID_c9a83c07-d6f7-4460-8163-b19bda3202fb
DIMENSION: 164
TOUR_SECTION
88
39
78
156
105
32
149
130
143
85
23
43
21
1
65
104
46
84
86
41
162
4
161
125
14
129
15
79
64
35
126
111
72
40
160
91
38
80
51
24
76
25
10
135
154
28
20
157
18
36
151
22
163
137
122
42
141
94
110
159
146
16
155
7
138
96
49
164
114
100
69
144
140
61
19
48
142
30
106
98
119
109
83
31
112
123
37
97
11
121
70
139
58
118
47
75
158
27
82
124
62
147
102
150
128
74
66
117
93
115
108
77
148
103
133
54
71
56
13
132
145
6
45
68
90
44
53
8
3
63
81
120
55
92
33
136
153
73
52
107
26
134
67
99
9
5
34
29
101
95
113
87
127
152
116
50
60
12
89
57
59
2
17
131
-1
EOF
